NAME : g07
TYPE : CVRP
DIMENSION : 361
VEHICLES : 9
CAPACITY : 900
DISTANCE : 1300
EDGE_WEIGHT_TYPE : EXACT_2D
NODE_COORD_SECTION
1 0.0000 0.0000
2 30.0000 0.0000
3 29.5442 5.2094
4 28.1908 10.2606
5 25.9808 15.0000
6 22.9813 19.2836
7 19.2836 22.9813
8 15.0000 25.9808
9 10.2606 28.1908
10 5.2094 29.5442
11 0.0000 30.0000
12 -5.2094 29.5442
13 -10.2606 28.1908
14 -15.0000 25.9808
15 -19.2836 22.9813
16 -22.9813 19.2836
17 -25.9808 15.0000
18 -28.1908 10.2606
19 -29.5442 5.2094
20 -30.0000 0.0000
21 -29.5442 -5.2094
22 -28.1908 -10.2606
23 -25.9808 -15.0000
24 -22.9813 -19.2836
25 -19.2836 -22.9813
26 -15.0000 -25.9808
27 -10.2606 -28.1908
28 -5.2094 -29.5442
29 0.0000 -30.0000
30 5.2094 -29.5442
31 10.2606 -28.1908
32 15.0000 -25.9808
33 19.2836 -22.9813
34 22.9813 -19.2836
35 25.9808 -15.0000
36 28.1908 -10.2606
37 29.5442 -5.2094
38 60.0000 0.0000
39 59.0885 10.4189
40 56.3816 20.5212
41 51.9615 30.0000
42 45.9627 38.5673
43 38.5673 45.9627
44 30.0000 51.9615
45 20.5212 56.3816
46 10.4189 59.0885
47 0.0000 60.0000
48 -10.4189 59.0885
49 -20.5212 56.3816
50 -30.0000 51.9615
51 -38.5673 45.9627
52 -45.9627 38.5673
53 -51.9615 30.0000
54 -56.3816 20.5212
55 -59.0885 10.4189
56 -60.0000 0.0000
57 -59.0885 -10.4189
58 -56.3816 -20.5212
59 -51.9615 -30.0000
60 -45.9627 -38.5673
61 -38.5673 -45.9627
62 -30.0000 -51.9615
63 -20.5212 -56.3816
64 -10.4189 -59.0885
65 0.0000 -60.0000
66 10.4189 -59.0885
67 20.5212 -56.3816
68 30.0000 -51.9615
69 38.5673 -45.9627
70 45.9627 -38.5672
71 51.9615 -30.0000
72 56.3816 -20.5212
73 59.0885 -10.4189
74 90.0000 0.0000
75 88.6327 15.6283
76 84.5723 30.7818
77 77.9423 45.0000
78 68.9440 57.8509
79 57.8509 68.9440
80 45.0000 77.9423
81 30.7818 84.5723
82 15.6283 88.6327
83 0.0000 90.0000
84 -15.6283 88.6327
85 -30.7818 84.5723
86 -45.0000 77.9423
87 -57.8509 68.9440
88 -68.9440 57.8509
89 -77.9423 45.0000
90 -84.5723 30.7818
91 -88.6327 15.6283
92 -90.0000 0.0000
93 -88.6327 -15.6283
94 -84.5723 -30.7818
95 -77.9423 -45.0000
96 -68.9440 -57.8509
97 -57.8509 -68.9440
98 -45.0000 -77.9423
99 -30.7818 -84.5723
100 -15.6283 -88.6327
101 0.0000 -90.0000
102 15.6283 -88.6327
103 30.7818 -84.5723
104 45.0000 -77.9423
105 57.8509 -68.9440
106 68.9440 -57.8509
107 77.9423 -45.0000
108 84.5723 -30.7818
109 88.6327 -15.6283
110 120.0000 0.0000
111 118.1769 20.8378
112 112.7631 41.0424
113 103.9230 60.0000
114 91.9253 77.1345
115 77.1345 91.9253
116 60.0000 103.9230
117 41.0424 112.7631
118 20.8378 118.1769
119 0.0000 120.0000
120 -20.8378 118.1769
121 -41.0424 112.7631
122 -60.0000 103.9230
123 -77.1345 91.9253
124 -91.9253 77.1345
125 -103.9230 60.0000
126 -112.7631 41.0424
127 -118.1769 20.8378
128 -120.0000 0.0000
129 -118.1769 -20.8378
130 -112.7631 -41.0424
131 -103.9230 -60.0000
132 -91.9253 -77.1345
133 -77.1345 -91.9253
134 -60.0000 -103.9231
135 -41.0424 -112.7631
136 -20.8378 -118.1769
137 0.0000 -120.0000
138 20.8378 -118.1769
139 41.0424 -112.7631
140 60.0000 -103.9230
141 77.1345 -91.9253
142 91.9253 -77.1345
143 103.9231 -60.0000
144 112.7631 -41.0424
145 118.1769 -20.8378
146 150.0000 0.0000
147 147.7212 26.0472
148 140.9539 51.3030
149 129.9038 75.0000
150 114.9067 96.4181
151 96.4181 114.9067
152 75.0000 129.9038
153 51.3030 140.9539
154 26.0472 147.7212
155 0.0000 150.0000
156 -26.0472 147.7212
157 -51.3030 140.9539
158 -75.0000 129.9038
159 -96.4182 114.9067
160 -114.9067 96.4181
161 -129.9038 75.0000
162 -140.9539 51.3030
163 -147.7212 26.0472
164 -150.0000 0.0000
165 -147.7212 -26.0472
166 -140.9539 -51.3030
167 -129.9038 -75.0000
168 -114.9067 -96.4182
169 -96.4181 -114.9067
170 -75.0000 -129.9038
171 -51.3030 -140.9539
172 -26.0472 -147.7212
173 0.0000 -150.0000
174 26.0472 -147.7212
175 51.3030 -140.9539
176 75.0000 -129.9038
177 96.4182 -114.9067
178 114.9067 -96.4181
179 129.9038 -75.0000
180 140.9539 -51.3030
181 147.7212 -26.0472
182 180.0000 0.0000
183 177.2654 31.2567
184 169.1447 61.5636
185 155.8846 90.0000
186 137.8880 115.7018
187 115.7018 137.8880
188 90.0000 155.8846
189 61.5636 169.1447
190 31.2567 177.2654
191 0.0000 180.0000
192 -31.2567 177.2654
193 -61.5636 169.1447
194 -90.0000 155.8846
195 -115.7018 137.8880
196 -137.8880 115.7018
197 -155.8846 90.0000
198 -169.1447 61.5636
199 -177.2654 31.2567
200 -180.0000 0.0000
201 -177.2654 -31.2567
202 -169.1447 -61.5636
203 -155.8846 -90.0000
204 -137.8880 -115.7018
205 -115.7018 -137.8880
206 -90.0000 -155.8846
207 -61.5636 -169.1447
208 -31.2566 -177.2654
209 0.0000 -180.0000
210 31.2567 -177.2654
211 61.5636 -169.1447
212 90.0000 -155.8846
213 115.7018 -137.8880
214 137.8880 -115.7018
215 155.8846 -90.0000
216 169.1447 -61.5636
217 177.2654 -31.2566
218 210.0000 0.0000
219 206.8096 36.4661
220 197.3354 71.8242
221 181.8653 105.0000
222 160.8693 134.9854
223 134.9854 160.8693
224 105.0000 181.8653
225 71.8242 197.3354
226 36.4661 206.8096
227 0.0000 210.0000
228 -36.4661 206.8096
229 -71.8242 197.3354
230 -105.0000 181.8653
231 -134.9854 160.8693
232 -160.8693 134.9854
233 -181.8653 105.0000
234 -197.3354 71.8242
235 -206.8096 36.4661
236 -210.0000 0.0000
237 -206.8096 -36.4661
238 -197.3354 -71.8242
239 -181.8653 -105.0000
240 -160.8693 -134.9854
241 -134.9854 -160.8694
242 -105.0000 -181.8653
243 -71.8242 -197.3355
244 -36.4661 -206.8096
245 0.0000 -210.0000
246 36.4661 -206.8096
247 71.8243 -197.3354
248 105.0000 -181.8653
249 134.9854 -160.8693
250 160.8694 -134.9854
251 181.8654 -105.0000
252 197.3355 -71.8242
253 206.8096 -36.4661
254 240.0000 0.0000
255 236.3539 41.6756
256 225.5262 82.0848
257 207.8461 120.0000
258 183.8507 154.2690
259 154.2690 183.8507
260 120.0000 207.8461
261 82.0848 225.5262
262 41.6756 236.3539
263 0.0000 240.0000
264 -41.6756 236.3539
265 -82.0848 225.5262
266 -120.0000 207.8461
267 -154.2690 183.8507
268 -183.8507 154.2690
269 -207.8461 120.0000
270 -225.5262 82.0848
271 -236.3539 41.6755
272 -240.0000 0.0000
273 -236.3539 -41.6756
274 -225.5262 -82.0849
275 -207.8461 -120.0000
276 -183.8506 -154.2690
277 -154.2690 -183.8507
278 -120.0000 -207.8461
279 -82.0848 -225.5262
280 -41.6755 -236.3539
281 0.0000 -240.0000
282 41.6756 -236.3539
283 82.0849 -225.5262
284 120.0000 -207.8461
285 154.2691 -183.8506
286 183.8507 -154.2690
287 207.8461 -120.0000
288 225.5262 -82.0848
289 236.3539 -41.6755
290 270.0000 0.0000
291 265.8981 46.8850
292 253.7170 92.3454
293 233.8269 135.0000
294 206.8320 173.5527
295 173.5526 206.8320
296 135.0000 233.8269
297 92.3454 253.7170
298 46.8850 265.8981
299 0.0000 270.0000
300 -46.8850 265.8981
301 -92.3455 253.7170
302 -135.0000 233.8269
303 -173.5527 206.8320
304 -206.8320 173.5526
305 -233.8269 135.0000
306 -253.7170 92.3454
307 -265.8981 46.8850
308 -270.0000 0.0000
309 -265.8981 -46.8850
310 -253.7170 -92.3455
311 -233.8268 -135.0000
312 -206.8320 -173.5527
313 -173.5526 -206.8320
314 -135.0000 -233.8269
315 -92.3454 -253.7170
316 -46.8850 -265.8981
317 0.0000 -270.0000
318 46.8850 -265.8981
319 92.3455 -253.7170
320 135.0000 -233.8268
321 173.5527 -206.8320
322 206.8320 -173.5526
323 233.8269 -135.0000
324 253.7170 -92.3454
325 265.8981 -46.8850
326 300.0000 0.0000
327 295.4423 52.0945
328 281.9078 102.6060
329 259.8076 150.0000
330 229.8133 192.8363
331 192.8363 229.8133
332 150.0000 259.8076
333 102.6060 281.9078
334 52.0944 295.4423
335 0.0000 300.0000
336 -52.0945 295.4423
337 -102.6061 281.9078
338 -150.0000 259.8076
339 -192.8363 229.8133
340 -229.8133 192.8363
341 -259.8076 150.0000
342 -281.9078 102.6060
343 -295.4423 52.0944
344 -300.0000 0.0000
345 -295.4423 -52.0945
346 -281.9078 -102.6061
347 -259.8076 -150.0000
348 -229.8133 -192.8363
349 -192.8363 -229.8134
350 -150.0000 -259.8076
351 -102.6060 -281.9078
352 -52.0944 -295.4423
353 0.0000 -300.0000
354 52.0945 -295.4423
355 102.6061 -281.9078
356 150.0000 -259.8076
357 192.8363 -229.8133
358 229.8134 -192.8362
359 259.8076 -150.0000
360 281.9078 -102.6060
361 295.4423 -52.0944
DEMAND_SECTION
1 0
2 10
3 30
4 30
5 10
6 10
7 30
8 30
9 10
10 10
11 30
12 30
13 10
14 10
15 30
16 30
17 10
18 10
19 30
20 30
21 10
22 10
23 30
24 30
25 10
26 10
27 30
28 30
29 10
30 10
31 30
32 30
33 10
34 10
35 30
36 30
37 10
38 10
39 30
40 30
41 10
42 10
43 30
44 30
45 10
46 10
47 30
48 30
49 10
50 10
51 30
52 30
53 10
54 10
55 30
56 30
57 10
58 10
59 30
60 30
61 10
62 10
63 30
64 30
65 10
66 10
67 30
68 30
69 10
70 10
71 30
72 30
73 10
74 10
75 30
76 30
77 10
78 10
79 30
80 30
81 10
82 10
83 30
84 30
85 10
86 10
87 30
88 30
89 10
90 10
91 30
92 30
93 10
94 10
95 30
96 30
97 10
98 10
99 30
100 30
101 10
102 10
103 30
104 30
105 10
106 10
107 30
108 30
109 10
110 10
111 30
112 30
113 10
114 10
115 30
116 30
117 10
118 10
119 30
120 30
121 10
122 10
123 30
124 30
125 10
126 10
127 30
128 30
129 10
130 10
131 30
132 30
133 10
134 10
135 30
136 30
137 10
138 10
139 30
140 30
141 10
142 10
143 30
144 30
145 10
146 10
147 30
148 30
149 10
150 10
151 30
152 30
153 10
154 10
155 30
156 30
157 10
158 10
159 30
160 30
161 10
162 10
163 30
164 30
165 10
166 10
167 30
168 30
169 10
170 10
171 30
172 30
173 10
174 10
175 30
176 30
177 10
178 10
179 30
180 30
181 10
182 10
183 30
184 30
185 10
186 10
187 30
188 30
189 10
190 10
191 30
192 30
193 10
194 10
195 30
196 30
197 10
198 10
199 30
200 30
201 10
202 10
203 30
204 30
205 10
206 10
207 30
208 30
209 10
210 10
211 30
212 30
213 10
214 10
215 30
216 30
217 10
218 10
219 30
220 30
221 10
222 10
223 30
224 30
225 10
226 10
227 30
228 30
229 10
230 10
231 30
232 30
233 10
234 10
235 30
236 30
237 10
238 10
239 30
240 30
241 10
242 10
243 30
244 30
245 10
246 10
247 30
248 30
249 10
250 10
251 30
252 30
253 10
254 10
255 30
256 30
257 10
258 10
259 30
260 30
261 10
262 10
263 30
264 30
265 10
266 10
267 30
268 30
269 10
270 10
271 30
272 30
273 10
274 10
275 30
276 30
277 10
278 10
279 30
280 30
281 10
282 10
283 30
284 30
285 10
286 10
287 30
288 30
289 10
290 10
291 30
292 30
293 10
294 10
295 30
296 30
297 10
298 10
299 30
300 30
301 10
302 10
303 30
304 30
305 10
306 10
307 30
308 30
309 10
310 10
311 30
312 30
313 10
314 10
315 30
316 30
317 10
318 10
319 30
320 30
321 10
322 10
323 30
324 30
325 10
326 10
327 30
328 30
329 10
330 10
331 30
332 30
333 10
334 10
335 30
336 30
337 10
338 10
339 30
340 30
341 10
342 10
343 30
344 30
345 10
346 10
347 30
348 30
349 10
350 10
351 30
352 30
353 10
354 10
355 30
356 30
357 10
358 10
359 30
360 30
361 10
DEPOT_SECTION
1 
-1
EOF
